Maximize
    800 A + 600 B + 800 C + 500 D
Subject To
    M1: 5 A + 3 B + 4 C + 4 D <= 200
    M2:       6 B + 5 C + 2 D <= 200
    M3: 6 A + 4 B + 3 C       <= 200
    M4:       3 B + 3 C + 2 D <= 200
    M5: 8 A +       4 C + 3 D <= 200
Bounds
    0 <= A <= 10
    0 <= B <= 10
    0 <= C <= 20
    0 <= D <= 20
End
